; DUP1 SWAP1 POP => 
(set-option :produce-proofs true)
; 
(set-info :status unknown)
(declare-fun storage_t ((_ BitVec 256) Int (_ BitVec 256)) (_ BitVec 256))
(declare-fun storage_s ((_ BitVec 256) Int (_ BitVec 256)) (_ BitVec 256))
(declare-fun exc_halt_t (Int) Bool)
(declare-fun exc_halt_s (Int) Bool)
(declare-fun stack_t ((_ BitVec 256) Int (_ BitVec 6)) (_ BitVec 256))
(declare-fun stack_s ((_ BitVec 256) Int (_ BitVec 6)) (_ BitVec 256))
(declare-fun sc_t (Int) (_ BitVec 6))
(declare-fun sc_s (Int) (_ BitVec 6))
(declare-fun used_gas_t ((_ BitVec 256) Int) Int)
(declare-fun used_gas_s ((_ BitVec 256) Int) Int)
(assert
 (exists ((x_0 (_ BitVec 256)) )(let (($x10546 (forall ((w (_ BitVec 256)) )(let ((?x3848 (storage_t x_0 0 w)))
 (let ((?x8767 (storage_s x_0 3 w)))
 (= ?x8767 ?x3848))))
 ))
 (let (($x56 (exc_halt_t 0)))
 (let (($x8103 (exc_halt_s 3)))
 (let (($x2637 (= $x8103 $x56)))
 (let (($x9906 (forall ((n (_ BitVec 6)) )(let ((?x327 (stack_t x_0 0 n)))
 (let ((?x9246 (stack_s x_0 3 n)))
 (let (($x4294 (= ?x9246 ?x327)))
 (let ((?x63 (sc_t 0)))
 (let (($x3394 (bvsle ?x63 n)))
 (or $x3394 $x4294)))))))
 ))
 (let ((?x63 (sc_t 0)))
 (let ((?x3851 (sc_s 3)))
 (let (($x5153 (= ?x3851 ?x63)))
 (let ((?x2850 (used_gas_t x_0 0)))
 (let ((?x7930 (used_gas_s x_0 0)))
 (let (($x6992 (= ?x7930 ?x2850)))
 (let (($x939 (forall ((w (_ BitVec 256)) )(let ((?x3848 (storage_t x_0 0 w)))
 (let ((?x7772 (storage_s x_0 0 w)))
 (= ?x7772 ?x3848))))
 ))
 (let (($x57 (exc_halt_s 0)))
 (let (($x58 (= $x57 $x56)))
 (let (($x6019 (forall ((n (_ BitVec 6)) )(let ((?x327 (stack_t x_0 0 n)))
 (let ((?x4016 (stack_s x_0 0 n)))
 (let (($x7606 (= ?x4016 ?x327)))
 (let ((?x63 (sc_t 0)))
 (let (($x3394 (bvsle ?x63 n)))
 (or $x3394 $x7606)))))))
 ))
 (let ((?x72 (sc_s 0)))
 (let (($x73 (= ?x72 ?x63)))
 (let (($x4084 (= $x8103 (or (exc_halt_s 2) (not (bvsle (_ bv0 6) (bvadd (_ bv63 6) (sc_s 2))))))))
 (let (($x10389 (forall ((w (_ BitVec 256)) )(let ((?x3343 (storage_s x_0 2 w)))
 (let ((?x8767 (storage_s x_0 3 w)))
 (= ?x8767 ?x3343))))
 ))
 (let (($x6591 (forall ((n (_ BitVec 6)) )(let ((?x2272 (sc_s 2)))
 (let ((?x7154 (bvadd (_ bv63 6) ?x2272)))
 (let (($x2805 (bvsle ?x7154 n)))
 (let ((?x7564 (stack_s x_0 2 n)))
 (let ((?x9246 (stack_s x_0 3 n)))
 (let (($x1691 (= ?x9246 ?x7564)))
 (or $x1691 $x2805))))))))
 ))
 (let ((?x2272 (sc_s 2)))
 (let ((?x7154 (bvadd (_ bv63 6) ?x2272)))
 (let (($x7163 (= ?x3851 ?x7154)))
 (let (($x10052 (exc_halt_s 2)))
 (let (($x668 (= $x10052 (or (exc_halt_s 1) (not (bvsle (_ bv0 6) (bvadd (_ bv62 6) (sc_s 1))))))))
 (let (($x6869 (forall ((w (_ BitVec 256)) )(let ((?x10032 (storage_s x_0 1 w)))
 (let ((?x3343 (storage_s x_0 2 w)))
 (= ?x3343 ?x10032))))
 ))
 (let (($x11408 (forall ((n (_ BitVec 6)) )(let ((?x9241 (stack_s x_0 1 n)))
 (let ((?x7564 (stack_s x_0 2 n)))
 (let (($x11196 (= ?x7564 ?x9241)))
 (let ((?x154 (sc_s 1)))
 (let ((?x5960 (bvadd (_ bv62 6) ?x154)))
 (let (($x7982 (bvsle ?x5960 n)))
 (or $x7982 $x11196))))))))
 ))
 (let ((?x154 (sc_s 1)))
 (let (($x7478 (= ?x2272 ?x154)))
 (let ((?x2547 (bvadd (_ bv63 6) ?x154)))
 (let ((?x9240 (stack_s x_0 1 ?x2547)))
 (let ((?x8832 (bvadd (_ bv62 6) ?x2272)))
 (let ((?x11532 (stack_s x_0 2 ?x8832)))
 (let (($x10983 (not (= ((_ extract 6 6) (bvadd (_ bv1 7) (concat (_ bv0 1) ?x72))) (_ bv0 1)))))
 (let (($x8780 (exc_halt_s 1)))
 (let (($x1463 (= $x8780 (or $x57 (not (bvsle (_ bv0 6) (bvadd (_ bv63 6) ?x72))) $x10983))))
 (let (($x3280 (forall ((w (_ BitVec 256)) )(let ((?x7772 (storage_s x_0 0 w)))
 (let ((?x10032 (storage_s x_0 1 w)))
 (= ?x10032 ?x7772))))
 ))
 (let (($x5491 (forall ((n (_ BitVec 6)) )(let ((?x72 (sc_s 0)))
 (let ((?x10229 (bvadd (_ bv63 6) ?x72)))
 (let (($x7706 (bvsle ?x10229 n)))
 (let ((?x4016 (stack_s x_0 0 n)))
 (let ((?x9241 (stack_s x_0 1 n)))
 (let (($x4335 (= ?x9241 ?x4016)))
 (or $x4335 $x7706))))))))
 ))
 (let (($x4355 (= ?x154 (bvadd (_ bv1 6) ?x72))))
 (let ((?x7259 (used_gas_s x_0 1)))
 (let (($x4979 (= ?x7259 (+ 3 ?x7930))))
 (let ((?x10229 (bvadd (_ bv63 6) ?x72)))
 (let ((?x11022 (stack_s x_0 0 ?x10229)))
 (let (($x7383 (forall ((w (_ BitVec 256)) )(let ((?x7772 (storage_s x_0 0 w)))
 (= ?x7772 (_ bv0 256))))
 ))
 (let (($x10976 (= ?x7930 0)))
 (let (($x7103 (not $x57)))
 (let (($x1880 (= (stack_s x_0 0 (_ bv0 6)) x_0)))
 (let (($x7461 (= ?x72 (_ bv1 6))))
 (and $x7461 $x1880 $x7103 $x10976 $x7383 (= ?x9240 ?x11022) (= (stack_s x_0 1 ?x10229) ?x11022) $x4979 $x4355 $x5491 $x3280 $x1463 (= (stack_s x_0 2 ?x7154) (stack_s x_0 1 (bvadd (_ bv62 6) ?x154))) (= ?x11532 ?x9240) (= (used_gas_s x_0 2) (+ 3 ?x7259)) $x7478 $x11408 $x6869 $x668 (= (used_gas_s x_0 3) (+ 2 (used_gas_s x_0 2))) $x7163 $x6591 $x10389 $x4084 $x73 $x6019 $x58 $x939 $x6992 (not (and $x5153 $x9906 $x2637 $x10546))))))))))))))))))))))))))))))))))))))))))))))))))))
 )
(check-sat)
(get-proof)
